solution status: optimal solution found
objective value:                     177706.928571427
d11(0,0)                                            1 	(obj:0)
d11(1,1)                                            1 	(obj:0)
d11(1,2)                                            1 	(obj:0)
d11(1,3)                                            1 	(obj:0)
d11(2,4)                                            1 	(obj:0)
d11(2,5)                                            1 	(obj:0)
d11(2,7)                                            1 	(obj:0)
d11(2,8)                                            1 	(obj:0)
d11(2,10)                                           1 	(obj:0)
d11(2,11)                                           1 	(obj:0)
d11(3,13)                                           1 	(obj:0)
d11(3,14)                                           1 	(obj:0)
d11(3,15)                                           1 	(obj:0)
d11(3,16)                                           1 	(obj:0)
d11(3,17)                                           1 	(obj:0)
d11(3,19)                                           1 	(obj:0)
d11(3,20)                                           1 	(obj:0)
d11(3,22)                                           1 	(obj:0)
d11(3,23)                                           1 	(obj:0)
d11(3,24)                                           1 	(obj:0)
d11(3,25)                                           1 	(obj:0)
d11(3,26)                                           1 	(obj:0)
d11(3,28)                                           1 	(obj:0)
d11(3,29)                                           1 	(obj:0)
d11(3,31)                                           1 	(obj:0)
d11(3,32)                                           1 	(obj:0)
d11(3,34)                                           1 	(obj:0)
d11(3,35)                                           1 	(obj:0)
d11(3,37)                                           1 	(obj:0)
d11(3,38)                                           1 	(obj:0)
d21(3,13)                                           1 	(obj:0)
d21(3,14)                                           1 	(obj:0)
d21(3,15)                                           1 	(obj:0)
d21(3,16)                                           1 	(obj:0)
d21(3,17)                                           1 	(obj:0)
d21(3,19)                                           1 	(obj:0)
d21(3,22)                                           1 	(obj:0)
d21(3,23)                                           1 	(obj:0)
d21(3,25)                                           1 	(obj:0)
d21(3,31)                                           1 	(obj:0)
STE(1,1)                             4522.15583326813 	(obj:0)
STE(0,0)                                        12600 	(obj:0)
STE(1,2)                             5518.92183660141 	(obj:0)
STE(1,3)                             6736.37403993479 	(obj:0)
STE(2,4)                              1491.9201966668 	(obj:0)
STE(2,5)                             2488.68620000009 	(obj:0)
STE(2,6)                             3514.15583326813 	(obj:0)
STE(2,7)                             2488.68620000009 	(obj:0)
STE(2,8)                             3485.45220333338 	(obj:0)
STE(2,9)                             4510.92183660141 	(obj:0)
STE(2,10)                            3706.13840333346 	(obj:0)
STE(2,11)                            4702.90440666675 	(obj:0)
STE(2,12)                            5728.37403993479 	(obj:0)
STE(3,13)                           -1730.29800999987 	(obj:0)
STE(3,14)                           -733.532006666575 	(obj:0)
STE(3,15)                            483.920196666802 	(obj:0)
STE(3,16)                           -733.532006666574 	(obj:0)
STE(3,17)                            263.233996666717 	(obj:0)
STE(3,18)                            1480.68620000009 	(obj:0)
STE(3,19)                            291.937626601458 	(obj:0)
STE(3,20)                            1288.70362993475 	(obj:0)
STE(3,21)                            2506.15583326813 	(obj:0)
STE(3,22)                           -733.532006666582 	(obj:0)
STE(3,23)                            263.233996666709 	(obj:0)
STE(3,24)                            1480.68620000009 	(obj:0)
STE(3,25)                            263.233996666709 	(obj:0)
STE(3,26)                                        1260 	(obj:0)
STE(3,27)                            2477.45220333338 	(obj:0)
STE(3,28)                            1288.70362993474 	(obj:0)
STE(3,29)                            2285.46963326803 	(obj:0)
STE(3,30)                            3502.92183660141 	(obj:0)
STE(3,31)                            483.920196666792 	(obj:0)
STE(3,32)                            1480.68620000008 	(obj:0)
STE(3,33)                            2698.13840333346 	(obj:0)
STE(3,34)                            1480.68620000008 	(obj:0)
STE(3,35)                            2477.45220333337 	(obj:0)
STE(3,36)                            3694.90440666675 	(obj:0)
STE(3,37)                            2506.15583326812 	(obj:0)
STE(3,38)                            3502.92183660141 	(obj:0)
STE(3,39)                            4720.37403993479 	(obj:0)
y1(3,23)                             1095.70698300004 	(obj:0)
y1(3,25)                                  1992.796386 	(obj:0)
y1(3,26)                             1095.70698300004 	(obj:0)
y1(3,28)                                  1992.796386 	(obj:0)
y1(3,29)                             1095.70698300004 	(obj:0)
y1(3,31)                                  1992.796386 	(obj:0)
y1(3,32)                             1095.70698300004 	(obj:0)
y1(3,34)                                  1992.796386 	(obj:0)
y1(3,35)                             1095.70698300004 	(obj:0)
y1(3,37)                                  1992.796386 	(obj:0)
y1(3,38)                             1095.70698300004 	(obj:0)
BG(3)                                1204.56299667522 	(obj:10)
WB(1)                                3199.95851117552 	(obj:0)
AVE(1)                               3199.95851117552 	(obj:0)
WB(2)                                3265.15049132519 	(obj:0)
AVE(2)                               3265.15049132519 	(obj:0)
AVE(3)                               3291.35535332476 	(obj:0)
WG(3)                                3291.35535332476 	(obj:10)
BG(1)                                8955.16668067212 	(obj:10)
BG(2)                                4319.60782647059 	(obj:10)
y1(1,1)                              6362.85975005869 	(obj:0)
y1(1,2)                              5465.77034705873 	(obj:0)
y1(1,3)                              4370.06336405869 	(obj:0)
y1(2,4)                              1820.01207294119 	(obj:0)
y1(2,5)                              922.922669941229 	(obj:0)
y1(2,7)                              1820.01207294119 	(obj:0)
y1(2,8)                              922.922669941229 	(obj:0)
y1(2,10)                             1820.01207294119 	(obj:0)
y1(2,11)                             922.922669941231 	(obj:0)
y1(3,13)                                  1992.796386 	(obj:0)
y1(3,14)                             1095.70698300004 	(obj:0)
y1(3,16)                                  1992.796386 	(obj:0)
y1(3,17)                             1095.70698300004 	(obj:0)
y1(3,19)                                  1992.796386 	(obj:0)
y1(3,20)                             1095.70698300004 	(obj:0)
y1(3,22)                                  1992.796386 	(obj:0)
